400
200 200
1 160 159
2 160 475
3 160 326
4 160 886
5 159 550
6 159 396
7 159 193
8 158 282
9 158 755
10 157 310
11 157 447
12 157 596
13 157 96
14 157 779
15 157 257
16 157 761
17 157 614
18 156 815
19 156 989
20 156 829
21 156 678
22 155 238
23 154 821
24 154 236
25 154 789
26 154 384
27 154 933
28 154 682
29 154 513
30 154 464
31 153 58
32 153 335
33 153 93
34 152 891
35 151 213
36 151 709
37 151 842
38 150 610
39 149 919
40 149 400
41 149 332
42 149 565
43 149 618
44 149 938
45 148 508
46 148 995
47 148 699
48 148 167
49 147 92
50 147 636
51 147 60
52 146 147
53 146 293
54 145 205
55 145 530
56 145 524
57 145 175
58 145 527
59 144 468
60 144 40
61 144 897
62 144 684
63 144 672
64 144 849
65 144 982
66 144 954
67 144 417
68 144 196
69 143 201
70 143 627
71 142 69
72 142 523
73 142 514
74 142 953
75 141 126
76 140 126
77 140 234
78 140 593
79 140 578
80 140 669
81 140 862
82 139 983
83 139 756
84 139 592
85 139 562
86 138 965
87 138 902
88 138 769
89 138 930
90 138 726
91 137 747
92 137 342
93 137 611
94 137 105
95 136 559
96 136 582
97 135 700
98 134 660
99 134 292
100 134 33
101 133 44
102 133 759
103 133 921
104 133 382
105 133 326
106 133 424
107 133 175
108 133 175
109 132 52
110 132 156
111 131 716
112 131 513
113 130 501
114 130 839
115 129 180
116 129 813
117 129 753
118 128 112
119 128 188
120 128 736
121 128 481
122 128 484
123 128 611
124 128 282
125 127 476
126 127 299
127 127 978
128 127 748
129 126 350
130 126 23
131 126 680
132 126 111
133 126 911
134 126 646
135 126 360
136 126 705
137 124 995
138 124 776
139 124 38
140 124 596
141 124 212
142 123 217
143 123 531
144 123 629
145 123 259
146 123 293
147 122 239
148 122 795
149 122 644
150 121 559
151 119 965
152 119 121
153 119 382
154 119 212
155 119 373
156 119 331
157 118 718
158 117 342
159 117 478
160 116 585
161 116 952
162 115 643
163 115 900
164 115 676
165 115 291
166 115 582
167 114 437
168 114 979
169 113 414
170 112 300
171 112 825
172 112 908
173 111 37
174 111 57
175 110 735
176 110 653
177 110 849
178 110 757
179 110 729
180 109 191
181 109 243
182 109 730
183 108 960
184 107 576
185 107 202
186 107 80
187 107 915
188 106 245
189 106 38
190 106 320
191 106 587
192 105 887
193 105 140
194 105 450
195 105 53
196 105 912
197 105 683
198 104 420
199 104 673
200 104 638
201 103 691
202 103 705
203 103 893
204 103 297
205 103 385
206 103 559
207 103 373
208 103 427
209 102 626
210 102 518
211 102 126
212 102 833
213 101 494
214 101 704
215 101 852
216 101 732
217 101 53
218 100 295
219 100 116
220 99 321
221 98 932
222 96 724
223 96 528
224 95 336
225 95 567
226 95 784
227 94 985
228 94 670
229 94 486
230 94 625
231 94 606
232 94 17
233 93 563
234 93 447
235 93 631
236 93 424
237 93 69
238 93 253
239 93 559
240 92 4
241 90 503
242 90 910
243 89 434
244 89 184
245 89 516
246 89 80
247 89 94
248 88 915
249 88 978
250 88 343
251 88 254
252 88 350
253 87 5
254 87 662
255 87 422
256 86 508
257 86 896
258 85 281
259 85 794
260 85 118
261 84 201
262 84 818
263 84 694
264 83 621
265 83 439
266 83 781
267 82 648
268 81 456
269 81 933
270 80 976
271 80 681
272 80 995
273 79 768
274 79 938
275 78 192
276 78 570
277 78 534
278 78 285
279 78 799
280 77 589
281 77 23
282 77 16
283 77 868
284 76 351
285 76 190
286 76 118
287 76 911
288 76 701
289 76 302
290 75 995
291 74 297
292 74 996
293 74 216
294 74 541
295 74 970
296 74 842
297 74 283
298 73 210
299 72 780
300 72 567
301 71 388
302 71 353
303 71 417
304 71 90
305 71 714
306 71 648
307 70 12
308 70 74
309 70 733
310 70 558
311 70 681
312 70 918
313 69 525
314 69 527
315 69 692
316 69 184
317 68 310
318 68 54
319 68 759
320 67 107
321 67 668
322 67 601
323 67 207
324 66 148
325 66 628
326 65 251
327 65 574
328 65 374
329 64 174
330 63 231
331 63 329
332 63 411
333 62 217
334 62 338
335 62 184
336 62 520
337 62 198
338 61 879
339 61 877
340 61 62
341 60 160
342 60 669
343 57 464
344 56 527
345 56 413
346 56 707
347 56 822
348 55 645
349 55 530
350 55 891
351 54 856
352 53 121
353 53 863
354 52 538
355 51 622
356 51 914
357 51 918
358 50 930
359 50 961
360 50 812
361 50 342
362 49 980
363 49 697
364 49 200
365 49 565
366 49 284
367 49 440
368 48 873
369 48 897
370 48 971
371 47 921
372 47 606
373 47 662
374 47 636
375 47 108
376 46 750
377 46 966
378 46 690
379 46 175
380 46 627
381 45 979
382 45 881
383 45 744
384 45 885
385 44 23
386 44 351
387 43 21
388 42 622
389 42 889
390 42 315
391 41 3
392 41 571
393 41 314
394 41 814
395 41 239
396 41 738
397 40 327
398 40 64
399 40 419
400 40 675
